202
1 37 -25
2 38 -9
3 41 -8
4 37 -6
5 36 -6
6 36 -4
7 37 -3
8 38 -4
9 38 0
10 39 0
11 41 2
12 41 -1
13 40 -3
14 41 -4
15 43 -3
16 43 -8
17 39 1
18 39 2
19 42 1
20 44 0
21 43 1
22 43 5
23 43 7
24 43 7
25 42 9
26 46 1
27 45 4
28 45 5
29 45 5
30 48 -4
31 48 -1
32 47 -1
33 47 0
34 49 0
35 49 2
36 49 4
37 47 5
38 48 6
39 48 7
40 49 6
41 50 5
42 50 4
43 50 3
44 51 3
45 51 4
46 51 5
47 52 4
48 52 5
49 52 5
50 53 6
51 50 -4
52 50 -2
53 50 0
54 51 -3
55 51 -2
56 51 0
57 52 -2
58 53 -3
59 53 -2
60 53 -1
61 54 -1
62 55 -1
63 56 -3
64 56 -4
65 56 -3
66 57 -2
67 60 -1
68 62 -6
69 52 -8
70 52 -8
71 53 -6
72 54 -6
73 55 -7
74 64 -22
75 64 -51
76 76 -68
77 70 23
78 68 17
79 65 25
80 61 23
81 60 22
82 60 25
83 63 10
84 60 5
85 59 5
86 60 10
87 57 12
88 55 13
89 58 15
90 59 18
91 57 18
92 56 10
93 55 10
94 55 12
95 53 8
96 53 10
97 54 10
98 54 12
99 52 7
100 52 9
101 52 11
102 52 13
103 50 6
104 50 7
105 51 7
106 51 6
107 51 7
108 51 7
109 51 7
110 51 7
111 51 7
112 51 9
113 51 11
114 51 12
115 51 12
116 50 13
117 51 13
118 49 7
119 50 8
120 49 8
121 49 10
122 49 11
123 49 8
124 48 9
125 49 12
126 48 11
127 46 6
128 46 6
129 47 7
130 47 7
131 47 8
132 47 11
133 47 13
134 48 14
135 48 16
136 47 15
137 45 7
138 45 9
139 45 11
140 45 12
141 45 13
142 44 9
143 44 11
144 43 11
145 44 12
146 39 9
147 42 12
148 41 14
149 41 15
150 41 17
151 40 17
152 38 15
153 37 15
154 38 13
155 36 14
156 53 14
157 54 18
158 53 18
159 52 17
160 51 19
161 52 21
162 53 23
163 51 17
164 50 19
165 50 20
166 51 22
167 49 13
168 50 14
169 50 18
170 49 16
171 48 17
172 48 21
173 47 19
174 47 21
175 46 18
176 46 20
177 45 21
178 46 23
179 47 27
180 45 24
181 45 25
182 44 26
183 44 28
184 46 14
185 45 14
186 45 16
187 43 16
188 44 18
189 44 20
190 42 18
191 42 21
192 41 20
193 42 23
194 42 24
195 43 28
196 42 27
197 39 20
198 40 23
199 38 21
200 38 23
201 35 25
202 35 33